c User generated cnf file
p cnf 7 31
5 -5 7 0 
6 6 -6 0 
7 -4 3 0 
5 -1 1 0 
1 -5 6 0 
4 -1 7 0 
1 4 -4 0 
1 -1 2 0 
6 1 -6 0 
1 -6 5 0 
2 7 -1 0 
2 -5 6 0 
2 2 -2 0 
4 5 -3 0 
7 -6 2 0 
3 -3 6 0 
2 -6 2 0 
5 -4 5 0 
2 6 -1 0 
7 5 -3 0 
4 3 -1 0 
1 3 -5 0 
4 -5 3 0 
7 -7 1 0 
3 -4 5 0 
5 -4 5 0 
3 -6 3 0 
5 -5 4 0 
4 -5 5 0 
3 -7 3 0 
5 -5 2 0 
